Minimize
 obj: 0
Subject to

\true constraints
   65 X1
 +    81 X2
 +    86 X3
 +    82 X4
 +    80 X5
< 197.000000

\multiple objectives
 -  72 X1
 -    67 X2
 -    88 X3
 -    66 X4
 -    75 X5
< 1
 -  89 X1
 -    67 X2
 -    90 X3
 -    76 X4
 -    87 X5
< 2
 -  84 X1
 -    89 X2
 -    68 X3
 -    96 X4
 -    65 X5
< 3
 -  64 X1
 -    78 X2
 -    71 X3
 -    60 X4
 -    86 X5
< 4
 -  60 X1
 -   100 X2
 -    74 X3
 -    96 X4
 -    71 X5
< 5
 -  85 X1
 -    64 X2
 -    79 X3
 -    69 X4
 -    86 X5
< 6
 -  98 X1
 -    79 X2
 -    85 X3
 -    79 X4
 -    79 X5
< 7
 -  75 X1
 -    93 X2
 -    73 X3
 -    88 X4
 -    72 X5
< 8


BINARY
X1
X2
X3
X4
X5
END
